Gurobi Optimizer version 9.1.2 build v9.1.2rc0 (linux64)
Thread count: 36 physical cores, 72 logical processors, using up to 32 threads
Optimize a model with 12 rows, 57 columns and 590 nonzeros
Model fingerprint: 0xf32eec78
Model has 47 quadratic constraints
Coefficient statistics:
  Matrix range     [2e-05, 3e+00]
  QMatrix range    [1e+00, 1e+00]
  QLMatrix range   [1e+00, 1e+00]
  Objective range  [8e-03, 7e-01]
  Bounds range     [1e+00, 1e+00]
  RHS range        [1e+00, 1e+00]
Presolve removed 9 rows and 0 columns

Continuous model is non-convex -- solving as a MIP.

Presolve removed 9 rows and 0 columns
Presolve time: 0.00s
Presolved: 189 rows, 57 columns, 443 nonzeros
Presolved model has 47 bilinear constraint(s)
Variable types: 57 continuous, 0 integer (0 binary)

Root relaxation: objective -1.743721e+00, 44 iterations, 0.00 seconds

    Nodes    |    Current Node    |     Objective Bounds      |     Work
 Expl Unexpl |  Obj  Depth IntInf | Incumbent    BestBd   Gap | It/Node Time

     0     0   -1.74372    0   38          -   -1.74372      -     -    0s
H    0     0                       0.6147548   -1.74372   384%     -    0s
     0     0   -1.64739    0    1    0.61475   -1.64739   368%     -    0s
H    0     0                      -1.6450460   -1.64739  0.14%     -    0s
     0     0     cutoff    0        -1.64505   -1.64505  0.00%     -    0s

Cutting planes:
  RLT: 25
  BQP: 3

Explored 1 nodes (76 simplex iterations) in 0.01 seconds
Thread count was 32 (of 72 available processors)

Solution count 2: -1.64505 0.614755 
No other solutions better than -1.64505

Optimal solution found (tolerance 1.00e-04)
Best objective -1.645045978473e+00, best bound -1.645045978473e+00, gap 0.0000%

User-callback calls 78, time in user-callback 0.00 sec
Gurobi Optimizer version 9.1.2 build v9.1.2rc0 (linux64)
Thread count: 36 physical cores, 72 logical processors, using up to 32 threads
Optimize a model with 12 rows, 55 columns and 570 nonzeros
Model fingerprint: 0xe8f33c9d
Model has 45 quadratic constraints
Coefficient statistics:
  Matrix range     [1e-04, 1e+00]
  QMatrix range    [1e+00, 1e+00]
  QLMatrix range   [1e+00, 1e+00]
  Objective range  [2e-02, 6e-01]
  Bounds range     [1e+00, 1e+00]
  RHS range        [1e+00, 1e+00]
Presolve removed 9 rows and 0 columns

Continuous model is non-convex -- solving as a MIP.

Presolve removed 9 rows and 0 columns
Presolve time: 0.00s
Presolved: 183 rows, 55 columns, 432 nonzeros
Presolved model has 45 bilinear constraint(s)
Variable types: 55 continuous, 0 integer (0 binary)

Root relaxation: objective -2.177081e+00, 41 iterations, 0.00 seconds

    Nodes    |    Current Node    |     Objective Bounds      |     Work
 Expl Unexpl |  Obj  Depth IntInf | Incumbent    BestBd   Gap | It/Node Time

     0     0   -2.17708    0   15          -   -2.17708      -     -    0s
H    0     0                      -1.6572778   -2.17708  31.4%     -    0s
     0     0   -2.07337    0    6   -1.65728   -2.07337  25.1%     -    0s
H    0     0                      -1.9908807   -2.07337  4.14%     -    0s
     0     0   -2.06480    0   45   -1.99088   -2.06480  3.71%     -    0s
     0     0   -2.04793    0   10   -1.99088   -2.04793  2.87%     -    0s
H    0     0                      -2.0426043   -2.04793  0.26%     -    0s
     0     0   -2.04785    0   10   -2.04260   -2.04785  0.26%     -    0s
H    0     0                      -2.0478167   -2.04785  0.00%     -    0s

Cutting planes:
  RLT: 23
  BQP: 5
  PSD: 1

Explored 1 nodes (97 simplex iterations) in 0.04 seconds
Thread count was 32 (of 72 available processors)

Solution count 4: -2.04782 -2.0426 -1.99088 -1.65728 

Optimal solution found (tolerance 1.00e-04)
Best objective -2.047816650583e+00, best bound -2.047850046009e+00, gap 0.0016%

User-callback calls 97, time in user-callback 0.00 sec



objective value: -2.0478166505828694
objective bound: -2.047850046008929
x_opt: [1.0, 1.0, 0.999983638062038, 0.08485464376080987, 0.0, 0.9999844819028127, 0.1808385768137469, 1.0, 1.0, 0.9999663733075658]
GUROBI solution time: 0.04445791244506836

